20
98
10
0 1
0 2
0 3
0 5
0 14
0 16
1 2
1 4
1 5
1 6
1 8
1 14
1 16
1 18
2 4
2 5
2 6
2 7
2 8
2 11
2 14
2 17
3 5
3 8
3 9
3 10
3 11
3 14
3 15
4 6
4 10
4 12
4 13
4 14
4 18
5 9
5 13
5 15
5 16
5 17
5 19
6 7
6 8
6 9
6 11
6 12
6 14
6 15
6 17
6 18
7 10
7 11
7 12
7 13
7 15
7 16
8 9
8 11
8 12
8 14
8 15
8 16
8 18
8 19
9 10
9 11
9 12
9 14
9 15
9 16
9 17
9 19
10 13
10 14
10 16
11 12
11 14
11 15
11 16
11 18
11 19
12 14
12 15
12 17
12 18
12 19
13 14
13 15
13 18
14 15
14 16
14 18
15 16
15 17
15 19
16 17
17 18
18 19
5 9
0 8
3 17
4 13
16 19
12 14
15 18
6 11
2 10
1 7
